Maximize
  C39 - 20 C102
Subject To
 R0: 0.19 C0 - 0.09 C2 - C102 <= 1
 R1: 0.91 C0 - 0.72 C1 - 0.09 C2 - C102 <= 1
 R2: 0.19 C0 - 0.09 C1 - 10 C102 <= 1
 R3: 0.91 C0 - 0.09 C1 - 0.72 C2 - C102 <= 1
 R4: - 0.72 C0 + 0.91 C1 - 0.09 C99 - C102 <= 1
 R5: 0.91 C1 - 0.72 C3 - 0.09 C99 - C102 <= 1
 R6: - 0.09 C0 + 0.28 C1 - 0.09 C3 - 10 C102 <= 1
 R7: - 0.09 C0 + C1 - 0.09 C3 - 0.72 C99 - C102 <= 1
 R8: - 0.09 C0 + 0.28 C2 - 0.09 C97 - C102 <= 1
 R9: - 0.09 C0 + C2 - 0.09 C97 - 0.72 C99 - C102 <= 1
 R10: - 0.72 C0 + 0.91 C2 - 0.09 C99 - 10 C102 <= 1
 R11: 0.91 C2 - 0.72 C97 - 0.09 C99 - C102 <= 1
 R12: - 0.72 C1 + 0.91 C3 - 0.09 C100 - C102 <= 1
 R13: 0.91 C3 - 0.72 C4 - 0.09 C100 - C102 <= 1
 R14: - 0.09 C1 + 0.28 C3 - 0.09 C4 - 10 C102 <= 1
 R15: - 0.09 C1 + C3 - 0.09 C4 - 0.72 C100 - C102 <= 1
 R16: - 0.72 C3 + 0.91 C4 - 0.09 C101 - C102 <= 1
 R17: 0.91 C4 - 0.72 C5 - 0.09 C101 - C102 <= 1
 R18: - 0.09 C3 + 0.28 C4 - 0.09 C5 - 10 C102 <= 1
 R19: - 0.09 C3 + C4 - 0.09 C5 - 0.72 C101 - C102 <= 1
 R20: - 0.72 C4 + 0.91 C5 - 0.09 C95 - C102 <= 1
 R21: 0.91 C5 - 0.72 C92 - 0.09 C95 - C102 <= 1
 R22: - 0.09 C4 + 0.28 C5 - 0.09 C92 - 10 C102 <= 1
 R23: - 0.09 C4 + C5 - 0.09 C92 - 0.72 C95 - C102 <= 1
 R24: 0.28 C6 - 0.09 C9 - 0.09 C78 - C102 <= 1
 R25: C6 - 0.09 C9 - 0.72 C57 - 0.09 C78 - C102 <= 1
 R26: 0.91 C6 - 0.09 C57 - 0.72 C78 - 10 C102 <= 1
 R27: 0.91 C6 - 0.72 C9 - 0.09 C57 - C102 <= 1
 R28: C7 - 0.09 C10 - 0.09 C79 - 0.72 C86 - C102 <= 1
 R29: C7 - 0.09 C10 - 0.72 C58 - 0.09 C79 - C102 <= 1
 R30: C7 - 0.09 C58 - 0.72 C79 - 0.09 C86 - 10 C102 <= 1
 R31: C7 - 0.72 C10 - 0.09 C58 - 0.09 C86 - C102 <= 1
 R32: 0.91 C8 - 0.09 C11 - 0.72 C87 - C102 <= 1
 R33: 0.91 C8 - 0.09 C11 - 0.72 C59 - C102 <= 1
 R34: 0.28 C8 - 0.09 C59 - 0.09 C87 - 10 C102 <= 1
 R35: C8 - 0.72 C11 - 0.09 C59 - 0.09 C87 - C102 <= 1
 R36: - 0.09 C6 + 0.28 C9 - 0.09 C49 - C102 <= 1
 R37: - 0.09 C6 + C9 - 0.72 C12 - 0.09 C49 - C102 <= 1
 R38: - 0.72 C6 + 0.91 C9 - 0.09 C12 - 10 C102 <= 1
 R39: 0.91 C9 - 0.09 C12 - 0.72 C49 - C102 <= 1
 R40: - 0.09 C7 + C10 - 0.09 C50 - 0.72 C84 - C102 <= 1
 R41: - 0.09 C7 + C10 - 0.72 C13 - 0.09 C50 - C102 <= 1
 R42: - 0.72 C7 + C10 - 0.09 C13 - 0.09 C84 - 10 C102 <= 1
 R43: C10 - 0.09 C13 - 0.72 C50 - 0.09 C84 - C102 <= 1
 R44: - 0.09 C8 + C11 - 0.09 C51 - 0.72 C85 - C102 <= 1
 R45: - 0.09 C8 + C11 - 0.72 C14 - 0.09 C51 - C102 <= 1
 R46: - 0.72 C8 + C11 - 0.09 C14 - 0.09 C85 - 10 C102 <= 1
 R47: C11 - 0.09 C14 - 0.72 C51 - 0.09 C85 - C102 <= 1
 R48: - 0.72 C9 + C12 - 0.09 C37 - 0.09 C57 - C102 <= 1
 R49: C12 - 0.72 C15 - 0.09 C37 - 0.09 C57 - C102 <= 1
 R50: - 0.09 C9 + C12 - 0.09 C15 - 0.72 C57 - 10 C102 <= 1
 R51: - 0.09 C9 + C12 - 0.09 C15 - 0.72 C37 - C102 <= 1
 R52: - 0.72 C10 + C13 - 0.09 C38 - 0.09 C58 - C102 <= 1
 R53: C13 - 0.72 C16 - 0.09 C38 - 0.09 C58 - C102 <= 1
 R54: - 0.09 C10 + C13 - 0.09 C16 - 0.72 C58 - 10 C102 <= 1
 R55: - 0.09 C10 + C13 - 0.09 C16 - 0.72 C38 - C102 <= 1
 R56: - 0.72 C11 + C14 - 0.09 C40 - 0.09 C59 - C102 <= 1
 R57: 0.28 C14 - 0.09 C40 - 0.09 C59 - C102 <= 1
 R58: - 0.09 C11 + 0.91 C14 - 0.72 C59 - 10 C102 <= 1
 R59: - 0.09 C11 + 0.91 C14 - 0.72 C40 - C102 <= 1
 R60: - 0.72 C12 + C15 - 0.09 C43 - 0.09 C55 - C102 <= 1
 R61: C15 - 0.72 C17 - 0.09 C43 - 0.09 C55 - C102 <= 1
 R62: - 0.09 C12 + C15 - 0.09 C17 - 0.72 C43 - 10 C102 <= 1
 R63: - 0.09 C12 + C15 - 0.09 C17 - 0.72 C55 - C102 <= 1
 R64: - 0.72 C13 + C16 - 0.09 C44 - 0.09 C56 - C102 <= 1
 R65: C16 - 0.72 C18 - 0.09 C44 - 0.09 C56 - C102 <= 1
 R66: - 0.09 C13 + C16 - 0.09 C18 - 0.72 C44 - 10 C102 <= 1
 R67: - 0.09 C13 + C16 - 0.09 C18 - 0.72 C56 - C102 <= 1
 R68: - 0.72 C15 + C17 - 0.09 C33 - 0.09 C41 - C102 <= 1
 R69: C17 - 0.72 C19 - 0.09 C33 - 0.09 C41 - C102 <= 1
 R70: - 0.09 C15 + C17 - 0.09 C19 - 0.72 C33 - 10 C102 <= 1
 R71: - 0.09 C15 + C17 - 0.09 C19 - 0.72 C41 - C102 <= 1
 R72: - 0.72 C16 + C18 - 0.09 C34 - 0.09 C42 - C102 <= 1
 R73: C18 - 0.72 C20 - 0.09 C34 - 0.09 C42 - C102 <= 1
 R74: - 0.09 C16 + C18 - 0.09 C20 - 0.72 C34 - 10 C102 <= 1
 R75: - 0.09 C16 + C18 - 0.09 C20 - 0.72 C42 - C102 <= 1
 R76: - 0.72 C17 + C19 - 0.09 C27 - 0.09 C62 - C102 <= 1
 R77: C19 - 0.72 C21 - 0.09 C27 - 0.09 C62 - C102 <= 1
 R78: - 0.09 C17 + C19 - 0.09 C21 - 0.72 C27 - 10 C102 <= 1
 R79: - 0.09 C17 + C19 - 0.09 C21 - 0.72 C62 - C102 <= 1
 R80: - 0.72 C18 + C20 - 0.09 C30 - 0.09 C61 - C102 <= 1
 R81: C20 - 0.72 C22 - 0.09 C30 - 0.09 C61 - C102 <= 1
 R82: - 0.09 C18 + C20 - 0.09 C22 - 0.72 C30 - 10 C102 <= 1
 R83: - 0.09 C18 + C20 - 0.09 C22 - 0.72 C61 - C102 <= 1
 R84: - 0.72 C19 + C21 - 0.09 C46 - 0.09 C66 - C102 <= 1
 R85: C21 - 0.72 C23 - 0.09 C46 - 0.09 C66 - C102 <= 1
 R86: - 0.09 C19 + C21 - 0.09 C23 - 0.72 C46 - 10 C102 <= 1
 R87: - 0.09 C19 + C21 - 0.09 C23 - 0.72 C66 - C102 <= 1
 R88: - 0.72 C20 + C22 - 0.09 C47 - 0.09 C67 - C102 <= 1
 R89: 0.28 C22 - 0.09 C47 - 0.09 C67 - C102 <= 1
 R90: - 0.09 C20 + 0.91 C22 - 0.72 C47 - 10 C102 <= 1
 R91: - 0.09 C20 + 0.91 C22 - 0.72 C67 - C102 <= 1
 R92: - 0.72 C21 + C23 - 0.09 C36 - 0.09 C69 - C102 <= 1
 R93: C23 - 0.09 C36 - 0.72 C60 - 0.09 C69 - C102 <= 1
 R94: - 0.09 C21 + C23 - 0.72 C36 - 0.09 C60 - 10 C102 <= 1
 R95: - 0.09 C21 + C23 - 0.09 C60 - 0.72 C69 - C102 <= 1
 R96: 0.91 C24 - 0.09 C26 - 0.72 C54 - C102 <= 1
 R97: 0.19 C24 - 0.09 C26 - C102 <= 1
 R98: 0.91 C24 - 0.72 C26 - 0.09 C54 - 10 C102 <= 1
 R99: 0.19 C24 - 0.09 C54 - C102 <= 1
 R100: C25 - 0.09 C26 - 0.72 C48 - 0.09 C52 - C102 <= 1
 R101: 0.28 C25 - 0.09 C26 - 0.09 C52 - C102 <= 1
 R102: 0.91 C25 - 0.09 C48 - 0.72 C52 - 10 C102 <= 1
 R103: 0.91 C25 - 0.72 C26 - 0.09 C48 - C102 <= 1
 R104: - 0.09 C24 - 0.09 C25 + C26 - 0.72 C71 - C102 <= 1
 R105: - 0.09 C24 - 0.09 C25 + 0.28 C26 - C102 <= 1
 R106: - 0.72 C25 + 0.91 C26 - 0.09 C71 - 10 C102 <= 1
 R107: - 0.72 C24 + 0.91 C26 - 0.09 C71 - C102 <= 1
 R108: - 0.09 C19 + C27 - 0.72 C33 - 0.09 C50 - C102 <= 1
 R109: - 0.09 C19 + C27 - 0.72 C46 - 0.09 C50 - C102 <= 1
 R110: C27 - 0.09 C33 - 0.09 C46 - 0.72 C50 - 10 C102 <= 1
 R111: - 0.72 C19 + C27 - 0.09 C33 - 0.09 C46 - C102 <= 1
 R112: 0.19 C28 - 0.09 C49 - C102 <= 1
 R113: 0.91 C28 - 0.72 C45 - 0.09 C49 - C102 <= 1
 R114: 0.91 C28 - 0.09 C45 - 0.72 C49 - 10 C102 <= 1
 R115: 0.19 C28 - 0.09 C45 - C102 <= 1
 R116: 0.1 C29 <= 0
 R117: 0.1 C29 <= 0
 R118: 0.1 C29 <= 0
 R119: 0.1 C29 <= 0
 R120: - 0.09 C20 + C30 - 0.72 C34 - 0.09 C51 - C102 <= 1
 R121: - 0.09 C20 + C30 - 0.72 C47 - 0.09 C51 - C102 <= 1
 R122: C30 - 0.09 C34 - 0.09 C47 - 0.72 C51 - 10 C102 <= 1
 R123: - 0.72 C20 + C30 - 0.09 C34 - 0.09 C47 - C102 <= 1
 R124: 0.91 C31 - 0.72 C35 - 0.09 C41 - C102 <= 1
 R125: 0.91 C31 - 0.09 C41 - 0.72 C64 - C102 <= 1
 R126: C31 - 0.09 C35 - 0.72 C41 - 0.09 C64 - 10 C102 <= 1
 R127: 0.28 C31 - 0.09 C35 - 0.09 C64 - C102 <= 1
 R128: C32 - 0.72 C36 - 0.09 C42 - 0.09 C60 - C102 <= 1
 R129: C32 - 0.09 C42 - 0.09 C60 - 0.72 C65 - C102 <= 1
 R130: C32 - 0.09 C36 - 0.72 C42 - 0.09 C65 - 10 C102 <= 1
 R131: C32 - 0.09 C36 - 0.72 C60 - 0.09 C65 - C102 <= 1
 R132: - 0.09 C17 + C33 - 0.72 C43 - 0.09 C72 - C102 <= 1
 R133: - 0.09 C17 - 0.72 C27 + C33 - 0.09 C72 - C102 <= 1
 R134: - 0.09 C27 + C33 - 0.09 C43 - 0.72 C72 - 10 C102 <= 1
 R135: - 0.72 C17 - 0.09 C27 + C33 - 0.09 C43 - C102 <= 1
 R136: - 0.09 C18 + C34 - 0.72 C44 - 0.09 C73 - C102 <= 1
 R137: - 0.09 C18 - 0.72 C30 + C34 - 0.09 C73 - C102 <= 1
 R138: - 0.09 C30 + C34 - 0.09 C44 - 0.72 C73 - 10 C102 <= 1
 R139: - 0.72 C18 - 0.09 C30 + C34 - 0.09 C44 - C102 <= 1
 R140: 0.91 C35 - 0.72 C45 - 0.09 C55 - C102 <= 1
 R141: - 0.72 C31 + 0.91 C35 - 0.09 C55 - C102 <= 1
 R142: - 0.09 C31 + C35 - 0.09 C45 - 0.72 C55 - 10 C102 <= 1
 R143: - 0.09 C31 + 0.28 C35 - 0.09 C45 - C102 <= 1
 R144: - 0.09 C23 + C36 - 0.72 C46 - 0.09 C56 - C102 <= 1
 R145: - 0.09 C23 - 0.72 C32 + C36 - 0.09 C56 - C102 <= 1
 R146: - 0.09 C32 + C36 - 0.09 C46 - 0.72 C56 - 10 C102 <= 1
 R147: - 0.72 C23 - 0.09 C32 + C36 - 0.09 C46 - C102 <= 1
 R148: - 0.09 C12 + C37 - 0.09 C45 - 0.72 C49 - C102 <= 1
 R149: - 0.09 C12 + C37 - 0.09 C45 - 0.72 C55 - C102 <= 1
 R150: - 0.72 C12 + C37 - 0.09 C49 - 0.09 C55 - 10 C102 <= 1
 R151: C37 - 0.72 C45 - 0.09 C49 - 0.09 C55 - C102 <= 1
 R152: - 0.09 C13 + C38 - 0.09 C46 - 0.72 C50 - C102 <= 1
 R153: - 0.09 C13 + C38 - 0.09 C46 - 0.72 C56 - C102 <= 1
 R154: - 0.72 C13 + C38 - 0.09 C50 - 0.09 C56 - 10 C102 <= 1
 R155: C38 - 0.72 C46 - 0.09 C50 - 0.09 C56 - C102 <= 1
 R156: - 0.9 C28 + C39 <= 0
 R157: - 0.9 C28 + C39 <= 0
 R158: - 0.9 C28 + C39 <= 0
 R159: - 0.9 C28 + C39 <= 0
 R160: - 0.09 C14 + C40 - 0.09 C47 - 0.72 C51 - C102 <= 1
 R161: - 0.09 C14 + 0.28 C40 - 0.09 C47 - C102 <= 1
 R162: - 0.72 C14 + 0.91 C40 - 0.09 C51 - 10 C102 <= 1
 R163: 0.91 C40 - 0.72 C47 - 0.09 C51 - C102 <= 1
 R164: - 0.09 C17 - 0.09 C31 + C41 - 0.72 C55 - C102 <= 1
 R165: - 0.09 C17 - 0.09 C31 + C41 - 0.72 C62 - C102 <= 1
 R166: - 0.72 C17 + C41 - 0.09 C55 - 0.09 C62 - 10 C102 <= 1
 R167: - 0.72 C31 + C41 - 0.09 C55 - 0.09 C62 - C102 <= 1
 R168: - 0.09 C18 - 0.09 C32 + C42 - 0.72 C56 - C102 <= 1
 R169: - 0.09 C18 - 0.09 C32 + C42 - 0.72 C61 - C102 <= 1
 R170: - 0.72 C18 + C42 - 0.09 C56 - 0.09 C61 - 10 C102 <= 1
 R171: - 0.72 C32 + C42 - 0.09 C56 - 0.09 C61 - C102 <= 1
 R172: - 0.09 C15 + C43 - 0.72 C57 - 0.09 C74 - C102 <= 1
 R173: - 0.09 C15 - 0.72 C33 + C43 - 0.09 C74 - C102 <= 1
 R174: - 0.09 C33 + C43 - 0.09 C57 - 0.72 C74 - 10 C102 <= 1
 R175: - 0.72 C15 - 0.09 C33 + C43 - 0.09 C57 - C102 <= 1
 R176: - 0.09 C16 + C44 - 0.72 C58 - 0.09 C75 - C102 <= 1
 R177: - 0.09 C16 - 0.72 C34 + C44 - 0.09 C75 - C102 <= 1
 R178: - 0.09 C34 + C44 - 0.09 C58 - 0.72 C75 - 10 C102 <= 1
 R179: - 0.72 C16 - 0.09 C34 + C44 - 0.09 C58 - C102 <= 1
 R180: - 0.72 C28 - 0.09 C37 + 0.91 C45 - C102 <= 1
 R181: - 0.72 C35 - 0.09 C37 + 0.91 C45 - C102 <= 1
 R182: - 0.09 C28 - 0.09 C35 - 0.72 C37 + C45 - 10 C102 <= 1
 R183: - 0.09 C28 - 0.09 C35 + 0.28 C45 - C102 <= 1
 R184: - 0.09 C21 - 0.72 C27 - 0.09 C38 + C46 - C102 <= 1
 R185: - 0.09 C21 - 0.72 C36 - 0.09 C38 + C46 - C102 <= 1
 R186: - 0.09 C27 - 0.09 C36 - 0.72 C38 + C46 - 10 C102 <= 1
 R187: - 0.72 C21 - 0.09 C27 - 0.09 C36 + C46 - C102 <= 1
 R188: - 0.09 C22 - 0.72 C30 - 0.09 C40 + C47 - C102 <= 1
 R189: - 0.09 C22 - 0.09 C40 + 0.28 C47 - C102 <= 1
 R190: - 0.09 C30 - 0.72 C40 + 0.91 C47 - 10 C102 <= 1
 R191: - 0.72 C22 - 0.09 C30 + 0.91 C47 - C102 <= 1
 R192: C48 - 0.72 C60 - 0.09 C65 - 0.09 C71 - C102 <= 1
 R193: - 0.72 C25 + C48 - 0.09 C65 - 0.09 C71 - C102 <= 1
 R194: - 0.09 C25 + C48 - 0.09 C60 - 0.72 C65 - 10 C102 <= 1
 R195: - 0.09 C25 + C48 - 0.09 C60 - 0.72 C71 - C102 <= 1
 R196: - 0.09 C9 - 0.09 C28 + 0.28 C49 - C102 <= 1
 R197: - 0.09 C9 - 0.09 C28 - 0.72 C37 + C49 - C102 <= 1
 R198: - 0.72 C9 - 0.09 C37 + 0.91 C49 - 10 C102 <= 1
 R199: - 0.72 C28 - 0.09 C37 + 0.91 C49 - C102 <= 1
 R200: - 0.09 C10 - 0.09 C27 + C50 - 0.72 C72 - C102 <= 1
 R201: - 0.09 C10 - 0.09 C27 - 0.72 C38 + C50 - C102 <= 1
 R202: - 0.72 C10 - 0.09 C38 + C50 - 0.09 C72 - 10 C102 <= 1
 R203: - 0.72 C27 - 0.09 C38 + C50 - 0.09 C72 - C102 <= 1
 R204: - 0.09 C11 - 0.09 C30 + C51 - 0.72 C73 - C102 <= 1
 R205: - 0.09 C11 - 0.09 C30 - 0.72 C40 + C51 - C102 <= 1
 R206: - 0.72 C11 - 0.09 C40 + C51 - 0.09 C73 - 10 C102 <= 1
 R207: - 0.72 C30 - 0.09 C40 + C51 - 0.09 C73 - C102 <= 1
 R208: - 0.09 C25 + C52 - 0.72 C65 - 0.09 C67 - C102 <= 1
 R209: - 0.09 C25 + 0.28 C52 - 0.09 C67 - C102 <= 1
 R210: 0.91 C52 - 0.09 C65 - 0.72 C67 - 10 C102 <= 1
 R211: - 0.72 C25 + 0.91 C52 - 0.09 C65 - C102 <= 1
 R212: 0.91 C53 - 0.72 C64 - 0.09 C66 - C102 <= 1
 R213: 0.91 C53 - 0.09 C66 - 0.72 C68 - C102 <= 1
 R214: C53 - 0.09 C64 - 0.72 C66 - 0.09 C68 - 10 C102 <= 1
 R215: 0.28 C53 - 0.09 C64 - 0.09 C68 - C102 <= 1
 R216: - 0.9 C29 + C54 <= 0
 R217: - 0.9 C29 + C54 <= 0
 R218: - 0.9 C29 + C54 <= 0
 R219: - 0.9 C29 + C54 <= 0
 R220: - 0.09 C15 - 0.09 C35 - 0.72 C37 + C55 - C102 <= 1
 R221: - 0.09 C15 - 0.09 C35 - 0.72 C41 + C55 - C102 <= 1
 R222: - 0.72 C15 - 0.09 C37 - 0.09 C41 + C55 - 10 C102 <= 1
 R223: - 0.72 C35 - 0.09 C37 - 0.09 C41 + C55 - C102 <= 1
 R224: - 0.09 C16 - 0.09 C36 - 0.72 C38 + C56 - C102 <= 1
 R225: - 0.09 C16 - 0.09 C36 - 0.72 C42 + C56 - C102 <= 1
 R226: - 0.72 C16 - 0.09 C38 - 0.09 C42 + C56 - 10 C102 <= 1
 R227: - 0.72 C36 - 0.09 C38 - 0.09 C42 + C56 - C102 <= 1
 R228: - 0.72 C6 - 0.09 C12 + C57 - 0.09 C76 - C102 <= 1
 R229: - 0.09 C12 - 0.72 C43 + C57 - 0.09 C76 - C102 <= 1
 R230: - 0.09 C6 - 0.09 C43 + C57 - 0.72 C76 - 10 C102 <= 1
 R231: - 0.09 C6 - 0.72 C12 - 0.09 C43 + C57 - C102 <= 1
 R232: - 0.72 C7 - 0.09 C13 + C58 - 0.09 C77 - C102 <= 1
 R233: - 0.09 C13 - 0.72 C44 + C58 - 0.09 C77 - C102 <= 1
 R234: - 0.09 C7 - 0.09 C44 + C58 - 0.72 C77 - 10 C102 <= 1
 R235: - 0.09 C7 - 0.72 C13 - 0.09 C44 + C58 - C102 <= 1
 R236: - 0.72 C8 - 0.09 C14 + 0.91 C59 - C102 <= 1
 R237: - 0.09 C14 + 0.19 C59 - C102 <= 1
 R238: - 0.09 C8 + 0.19 C59 - 10 C102 <= 1
 R239: - 0.09 C8 - 0.72 C14 + 0.91 C59 - C102 <= 1
 R240: - 0.72 C23 - 0.09 C32 + C60 - 0.09 C63 - C102 <= 1
 R241: - 0.09 C32 - 0.72 C48 + C60 - 0.09 C63 - C102 <= 1
 R242: - 0.09 C23 - 0.72 C32 - 0.09 C48 + C60 - 10 C102 <= 1
 R243: - 0.09 C23 - 0.09 C48 + C60 - 0.72 C63 - C102 <= 1
 R244: - 0.09 C20 - 0.72 C42 + C61 - 0.09 C65 - C102 <= 1
 R245: - 0.09 C20 + C61 - 0.09 C65 - 0.72 C67 - C102 <= 1
 R246: - 0.72 C20 - 0.09 C42 + C61 - 0.09 C67 - 10 C102 <= 1
 R247: - 0.09 C42 + C61 - 0.72 C65 - 0.09 C67 - C102 <= 1
 R248: - 0.09 C19 - 0.72 C41 + C62 - 0.09 C64 - C102 <= 1
 R249: - 0.09 C19 + C62 - 0.09 C64 - 0.72 C66 - C102 <= 1
 R250: - 0.72 C19 - 0.09 C41 + C62 - 0.09 C66 - 10 C102 <= 1
 R251: - 0.09 C41 + C62 - 0.72 C64 - 0.09 C66 - C102 <= 1
 R252: - 0.09 C60 + C63 - 0.72 C69 - 0.09 C70 - C102 <= 1
 R253: - 0.09 C60 + C63 - 0.09 C70 - 0.72 C71 - C102 <= 1
 R254: - 0.72 C60 + C63 - 0.09 C69 - 0.09 C71 - 10 C102 <= 1
 R255: C63 - 0.09 C69 - 0.72 C70 - 0.09 C71 - C102 <= 1
 R256: - 0.72 C31 - 0.09 C62 + 0.91 C64 - C102 <= 1
 R257: - 0.72 C53 - 0.09 C62 + 0.91 C64 - C102 <= 1
 R258: - 0.09 C31 - 0.09 C53 - 0.72 C62 + C64 - 10 C102 <= 1
 R259: - 0.09 C31 - 0.09 C53 + 0.28 C64 - C102 <= 1
 R260: - 0.72 C32 - 0.09 C48 - 0.09 C61 + C65 - C102 <= 1
 R261: - 0.09 C48 - 0.72 C52 - 0.09 C61 + C65 - C102 <= 1
 R262: - 0.09 C32 - 0.09 C52 - 0.72 C61 + C65 - 10 C102 <= 1
 R263: - 0.09 C32 - 0.72 C48 - 0.09 C52 + C65 - C102 <= 1
 R264: - 0.09 C21 - 0.09 C53 - 0.72 C62 + C66 - C102 <= 1
 R265: - 0.09 C21 - 0.09 C53 + C66 - 0.72 C69 - C102 <= 1
 R266: - 0.72 C21 - 0.09 C62 + C66 - 0.09 C69 - 10 C102 <= 1
 R267: - 0.72 C53 - 0.09 C62 + C66 - 0.09 C69 - C102 <= 1
 R268: - 0.09 C22 - 0.09 C52 - 0.72 C61 + C67 - C102 <= 1
 R269: - 0.09 C22 - 0.09 C52 + 0.28 C67 - C102 <= 1
 R270: - 0.72 C22 - 0.09 C61 + 0.91 C67 - 10 C102 <= 1
 R271: - 0.72 C52 - 0.09 C61 + 0.91 C67 - C102 <= 1
 R272: - 0.72 C53 + 0.91 C68 - 0.09 C69 - C102 <= 1
 R273: 0.91 C68 - 0.09 C69 - 0.72 C70 - C102 <= 1
 R274: - 0.09 C53 + C68 - 0.72 C69 - 0.09 C70 - 10 C102 <= 1
 R275: - 0.09 C53 + 0.28 C68 - 0.09 C70 - C102 <= 1
 R276: - 0.09 C23 - 0.72 C66 - 0.09 C68 + C69 - C102 <= 1
 R277: - 0.09 C23 - 0.72 C63 - 0.09 C68 + C69 - C102 <= 1
 R278: - 0.72 C23 - 0.09 C63 - 0.09 C66 + C69 - 10 C102 <= 1
 R279: - 0.09 C63 - 0.09 C66 - 0.72 C68 + C69 - C102 <= 1
 R280: - 0.09 C63 - 0.72 C68 + 0.91 C70 - C102 <= 1
 R281: - 0.72 C54 - 0.09 C63 + 0.91 C70 - C102 <= 1
 R282: - 0.09 C54 - 0.72 C63 - 0.09 C68 + C70 - 10 C102 <= 1
 R283: - 0.09 C54 - 0.09 C68 + 0.28 C70 - C102 <= 1
 R284: - 0.09 C48 - 0.09 C54 - 0.72 C63 + C71 - C102 <= 1
 R285: - 0.72 C26 - 0.09 C48 - 0.09 C54 + C71 - C102 <= 1
 R286: - 0.09 C26 - 0.72 C48 - 0.09 C63 + C71 - 10 C102 <= 1
 R287: - 0.09 C26 - 0.72 C54 - 0.09 C63 + C71 - C102 <= 1
 R288: - 0.09 C33 + C72 - 0.72 C74 - 0.09 C84 - C102 <= 1
 R289: - 0.09 C33 - 0.72 C50 + C72 - 0.09 C84 - C102 <= 1
 R290: - 0.09 C50 + C72 - 0.09 C74 - 0.72 C84 - 10 C102 <= 1
 R291: - 0.72 C33 - 0.09 C50 + C72 - 0.09 C74 - C102 <= 1
 R292: - 0.09 C34 + C73 - 0.72 C75 - 0.09 C85 - C102 <= 1
 R293: - 0.09 C34 - 0.72 C51 + C73 - 0.09 C85 - C102 <= 1
 R294: - 0.09 C51 + C73 - 0.09 C75 - 0.72 C85 - 10 C102 <= 1
 R295: - 0.72 C34 - 0.09 C51 + C73 - 0.09 C75 - C102 <= 1
 R296: - 0.09 C43 + C74 - 0.72 C76 - 0.09 C82 - C102 <= 1
 R297: - 0.09 C43 - 0.72 C72 + C74 - 0.09 C82 - C102 <= 1
 R298: - 0.09 C72 + C74 - 0.09 C76 - 0.72 C82 - 10 C102 <= 1
 R299: - 0.72 C43 - 0.09 C72 + C74 - 0.09 C76 - C102 <= 1
 R300: - 0.09 C44 + C75 - 0.72 C77 - 0.09 C83 - C102 <= 1
 R301: - 0.09 C44 - 0.72 C73 + C75 - 0.09 C83 - C102 <= 1
 R302: - 0.09 C73 + C75 - 0.09 C77 - 0.72 C83 - 10 C102 <= 1
 R303: - 0.72 C44 - 0.09 C73 + C75 - 0.09 C77 - C102 <= 1
 R304: - 0.09 C57 + C76 - 0.72 C78 - 0.09 C80 - C102 <= 1
 R305: - 0.09 C57 - 0.72 C74 + C76 - 0.09 C80 - C102 <= 1
 R306: - 0.09 C74 + C76 - 0.09 C78 - 0.72 C80 - 10 C102 <= 1
 R307: - 0.72 C57 - 0.09 C74 + C76 - 0.09 C78 - C102 <= 1
 R308: - 0.09 C58 + C77 - 0.72 C79 - 0.09 C81 - C102 <= 1
 R309: - 0.09 C58 - 0.72 C75 + C77 - 0.09 C81 - C102 <= 1
 R310: - 0.09 C75 + C77 - 0.09 C79 - 0.72 C81 - 10 C102 <= 1
 R311: - 0.72 C58 - 0.09 C75 + C77 - 0.09 C79 - C102 <= 1
 R312: - 0.9 C29 + C78 <= 0
 R313: - 0.9 C29 + C78 <= 0
 R314: - 0.9 C29 + C78 <= 0
 R315: - 0.9 C29 + C78 <= 0
 R316: - 0.09 C7 + C79 - 0.72 C90 - 0.09 C95 - C102 <= 1
 R317: - 0.09 C7 - 0.72 C77 + C79 - 0.09 C95 - C102 <= 1
 R318: - 0.09 C77 + C79 - 0.09 C90 - 0.72 C95 - 10 C102 <= 1
 R319: - 0.72 C7 - 0.09 C77 + C79 - 0.09 C90 - C102 <= 1
 R320: - 0.09 C76 + C80 - 0.09 C91 - 0.72 C94 - C102 <= 1
 R321: - 0.09 C76 + C80 - 0.72 C82 - 0.09 C91 - C102 <= 1
 R322: C80 - 0.09 C82 - 0.72 C91 - 0.09 C94 - 10 C102 <= 1
 R323: - 0.72 C76 + C80 - 0.09 C82 - 0.09 C94 - C102 <= 1
 R324: - 0.09 C77 + C81 - 0.09 C92 - 0.72 C95 - C102 <= 1
 R325: - 0.09 C77 + C81 - 0.72 C83 - 0.09 C92 - C102 <= 1
 R326: C81 - 0.09 C83 - 0.72 C92 - 0.09 C95 - 10 C102 <= 1
 R327: - 0.72 C77 + C81 - 0.09 C83 - 0.09 C95 - C102 <= 1
 R328: - 0.09 C74 - 0.72 C80 + C82 - 0.09 C88 - C102 <= 1
 R329: - 0.09 C74 + C82 - 0.72 C84 - 0.09 C88 - C102 <= 1
 R330: - 0.09 C80 + C82 - 0.09 C84 - 0.72 C88 - 10 C102 <= 1
 R331: - 0.72 C74 - 0.09 C80 + C82 - 0.09 C84 - C102 <= 1
 R332: - 0.09 C75 - 0.72 C81 + C83 - 0.09 C89 - C102 <= 1
 R333: - 0.09 C75 + C83 - 0.72 C85 - 0.09 C89 - C102 <= 1
 R334: - 0.09 C81 + C83 - 0.09 C85 - 0.72 C89 - 10 C102 <= 1
 R335: - 0.72 C75 - 0.09 C81 + C83 - 0.09 C85 - C102 <= 1
 R336: - 0.09 C72 - 0.72 C82 + C84 - 0.09 C86 - C102 <= 1
 R337: - 0.72 C10 - 0.09 C72 + C84 - 0.09 C86 - C102 <= 1
 R338: - 0.09 C10 - 0.09 C82 + C84 - 0.72 C86 - 10 C102 <= 1
 R339: - 0.09 C10 - 0.72 C72 - 0.09 C82 + C84 - C102 <= 1
 R340: - 0.09 C73 - 0.72 C83 + C85 - 0.09 C87 - C102 <= 1
 R341: - 0.72 C11 - 0.09 C73 + C85 - 0.09 C87 - C102 <= 1
 R342: - 0.09 C11 - 0.09 C83 + C85 - 0.72 C87 - 10 C102 <= 1
 R343: - 0.09 C11 - 0.72 C73 - 0.09 C83 + C85 - C102 <= 1
 R344: - 0.09 C84 + C86 - 0.72 C88 - 0.09 C90 - C102 <= 1
 R345: - 0.72 C7 - 0.09 C84 + C86 - 0.09 C90 - C102 <= 1
 R346: - 0.09 C7 + C86 - 0.09 C88 - 0.72 C90 - 10 C102 <= 1
 R347: - 0.09 C7 - 0.72 C84 + C86 - 0.09 C88 - C102 <= 1
 R348: - 0.09 C85 + 0.91 C87 - 0.72 C89 - C102 <= 1
 R349: - 0.72 C8 - 0.09 C85 + 0.91 C87 - C102 <= 1
 R350: - 0.09 C8 + 0.28 C87 - 0.09 C89 - 10 C102 <= 1
 R351: - 0.09 C8 - 0.72 C85 + C87 - 0.09 C89 - C102 <= 1
 R352: - 0.09 C82 + C88 - 0.72 C91 - 0.09 C93 - C102 <= 1
 R353: - 0.09 C82 - 0.72 C86 + C88 - 0.09 C93 - C102 <= 1
 R354: - 0.09 C86 + C88 - 0.09 C91 - 0.72 C93 - 10 C102 <= 1
 R355: - 0.72 C82 - 0.09 C86 + C88 - 0.09 C91 - C102 <= 1
 R356: - 0.09 C83 + 0.91 C89 - 0.72 C92 - C102 <= 1
 R357: - 0.09 C83 - 0.72 C87 + 0.91 C89 - C102 <= 1
 R358: - 0.09 C87 + 0.28 C89 - 0.09 C92 - 10 C102 <= 1
 R359: - 0.72 C83 - 0.09 C87 + C89 - 0.09 C92 - C102 <= 1
 R360: - 0.09 C86 + C90 - 0.72 C93 - 0.09 C101 - C102 <= 1
 R361: - 0.72 C79 - 0.09 C86 + C90 - 0.09 C101 - C102 <= 1
 R362: - 0.09 C79 + C90 - 0.09 C93 - 0.72 C101 - 10 C102 <= 1
 R363: - 0.09 C79 - 0.72 C86 + C90 - 0.09 C93 - C102 <= 1
 R364: - 0.09 C80 + C91 - 0.72 C96 - 0.09 C98 - C102 <= 1
 R365: - 0.09 C80 - 0.72 C88 + C91 - 0.09 C98 - C102 <= 1
 R366: - 0.09 C88 + C91 - 0.09 C96 - 0.72 C98 - 10 C102 <= 1
 R367: - 0.72 C80 - 0.09 C88 + C91 - 0.09 C96 - C102 <= 1
 R368: - 0.72 C5 - 0.09 C81 + 0.91 C92 - C102 <= 1
 R369: - 0.09 C81 - 0.72 C89 + 0.91 C92 - C102 <= 1
 R370: - 0.09 C5 - 0.09 C89 + 0.28 C92 - 10 C102 <= 1
 R371: - 0.09 C5 - 0.72 C81 - 0.09 C89 + C92 - C102 <= 1
 R372: - 0.09 C88 + C93 - 0.72 C98 - 0.09 C100 - C102 <= 1
 R373: - 0.09 C88 - 0.72 C90 + C93 - 0.09 C100 - C102 <= 1
 R374: - 0.09 C90 + C93 - 0.09 C98 - 0.72 C100 - 10 C102 <= 1
 R375: - 0.72 C88 - 0.09 C90 + C93 - 0.09 C98 - C102 <= 1
 R376: - 0.09 C78 + 0.28 C94 - 0.09 C96 - C102 <= 1
 R377: - 0.09 C78 - 0.72 C80 + C94 - 0.09 C96 - C102 <= 1
 R378: - 0.09 C80 + 0.91 C94 - 0.72 C96 - 10 C102 <= 1
 R379: - 0.72 C78 - 0.09 C80 + 0.91 C94 - C102 <= 1
 R380: - 0.09 C5 - 0.09 C79 + C95 - 0.72 C101 - C102 <= 1
 R381: - 0.09 C5 - 0.09 C79 - 0.72 C81 + C95 - C102 <= 1
 R382: - 0.72 C5 - 0.09 C81 + C95 - 0.09 C101 - 10 C102 <= 1
 R383: - 0.72 C79 - 0.09 C81 + C95 - 0.09 C101 - C102 <= 1
 R384: - 0.09 C94 + 0.28 C96 - 0.09 C97 - C102 <= 1
 R385: - 0.72 C91 - 0.09 C94 + C96 - 0.09 C97 - C102 <= 1
 R386: - 0.09 C91 + 0.91 C96 - 0.72 C97 - 10 C102 <= 1
 R387: - 0.09 C91 - 0.72 C94 + 0.91 C96 - C102 <= 1
 R388: - 0.09 C2 - 0.09 C96 + 0.28 C97 - C102 <= 1
 R389: - 0.09 C2 - 0.09 C96 + C97 - 0.72 C98 - C102 <= 1
 R390: - 0.72 C2 + 0.91 C97 - 0.09 C98 - 10 C102 <= 1
 R391: - 0.72 C96 + 0.91 C97 - 0.09 C98 - C102 <= 1
 R392: - 0.09 C91 - 0.72 C97 + C98 - 0.09 C99 - C102 <= 1
 R393: - 0.09 C91 - 0.72 C93 + C98 - 0.09 C99 - C102 <= 1
 R394: - 0.09 C93 - 0.09 C97 + C98 - 0.72 C99 - 10 C102 <= 1
 R395: - 0.72 C91 - 0.09 C93 - 0.09 C97 + C98 - C102 <= 1
 R396: - 0.09 C1 - 0.72 C2 - 0.09 C98 + C99 - C102 <= 1
 R397: - 0.09 C1 - 0.09 C98 + C99 - 0.72 C100 - C102 <= 1
 R398: - 0.72 C1 - 0.09 C2 + C99 - 0.09 C100 - 10 C102 <= 1
 R399: - 0.09 C2 - 0.72 C98 + C99 - 0.09 C100 - C102 <= 1
 R400: - 0.09 C3 - 0.09 C93 - 0.72 C99 + C100 - C102 <= 1
 R401: - 0.09 C3 - 0.09 C93 + C100 - 0.72 C101 - C102 <= 1
 R402: - 0.72 C3 - 0.09 C99 + C100 - 0.09 C101 - 10 C102 <= 1
 R403: - 0.72 C93 - 0.09 C99 + C100 - 0.09 C101 - C102 <= 1
 R404: - 0.09 C4 - 0.09 C90 - 0.72 C100 + C101 - C102 <= 1
 R405: - 0.09 C4 - 0.09 C90 - 0.72 C95 + C101 - C102 <= 1
 R406: - 0.72 C4 - 0.09 C95 - 0.09 C100 + C101 - 10 C102 <= 1
 R407: - 0.72 C90 - 0.09 C95 - 0.09 C100 + C101 - C102 <= 1
Bounds
End
